language ESSENCE' 1.0
$ minion Nodes: 12
$ minion TotalTime: 0.009045
$ Savile Row TotalTime: 2.204
letting c be 3
letting b_MSetExplicit be [3, 4, 5, 7;int(1..4)]
letting a_MSetExplicit be [3, 3, 4, 5;int(1..4)]
letting b_MSetOccurrence be [1, 1, 1, 0, 1;int(3..7)]
